(declare-const X String)
; configINTERNAL\.inikwdwww\x2Ewordiq\x2Ecomas\x2Estarware\x2Ecom
(assert (not (str.in_re X (str.to_re "configINTERNAL.inikwdwww.wordiq.com\u{1b}as.starware.com\u{a}"))))
(check-sat)

(exit)
